
Gurobi 10.0.2 (linux64) logging started Sat 20 Jul 2024 01:27:06 AM -05

Set parameter LogFile to value "gurobi.log"
Gurobi Optimizer version 10.0.2 build v10.0.2rc0 (linux64)

CPU model: Intel(R) Core(TM) i5-1035G1 CPU @ 1.00GHz, instruction set [SSE2|AVX|AVX2|AVX512]
Thread count: 4 physical cores, 8 logical processors, using up to 8 threads

Academic license 2446675 - for non-commercial use only - registered to mi___@epn.edu.ec
Optimize a model with 2720 rows, 1215 columns and 8483 nonzeros
Model fingerprint: 0x27080651
Variable types: 0 continuous, 1215 integer (0 binary)
Coefficient statistics:
  Matrix range     [1e+00, 8e+01]
  Objective range  [5e-01, 7e+00]
  Bounds range     [1e+00, 1e+03]
  RHS range        [1e+00, 2e+03]
Found heuristic solution: objective 17729.348450
Presolve removed 2707 rows and 1199 columns
Presolve time: 0.01s
Presolved: 13 rows, 16 columns, 38 nonzeros
Found heuristic solution: objective 17784.409345
Variable types: 0 continuous, 16 integer (3 binary)

Root relaxation: objective 1.781452e+04, 4 iterations, 0.00 seconds (0.00 work units)

    Nodes    |    Current Node    |     Objective Bounds      |     Work
 Expl Unexpl |  Obj  Depth IntInf | Incumbent    BestBd   Gap | It/Node Time

*    0     0               0    17814.516370 17814.5164  0.00%     -    0s

Explored 1 nodes (4 simplex iterations) in 0.03 seconds (0.00 work units)
Thread count was 8 (of 8 available processors)

Solution count 3: 17814.5 17784.4 17729.3 

Optimal solution found (tolerance 1.00e-04)
Best objective 1.781451637000e+04, best bound 1.781451637000e+04, gap 0.0000%
